nohup: ignoring input
rm: cannot remove ‘*.csv’: No such file or directory
WARNING: At least one scenario is missing PySP_prob attribute. Assuming equally-likely scenarios...
Using license file /export/home/dlwoodruff/software/gurobi900/linux64/../lic/gurobi.lic
Academic license - for non-commercial use only
Parameter OutputFlag unchanged
   Value: 1  Min: 0  Max: 1  Default: 1
Changed value of parameter LogFile to /tmp/tmp6vjp3t61.log
   Prev:   Default: 
Gurobi Optimizer version 9.0.0 build v9.0.0rc2 (linux64)
Optimize a model with 11998000 rows, 15000000 columns and 35994000 nonzeros
Model fingerprint: 0x0ccb8d2c
Coefficient statistics:
  Matrix range     [1e+00, 2e+01]
  Objective range  [1e-02, 1e+02]
  Bounds range     [6e+03, 5e+05]
  RHS range        [2e+02, 5e+05]

Concurrent LP optimizer: primal simplex, dual simplex, and barrier
Showing barrier log only...

Presolve removed 3000000 rows and 5000000 columns (presolve time = 8s) ...
Presolve removed 3000000 rows and 5000000 columns (presolve time = 14s) ...
Presolve removed 3010000 rows and 5010000 columns (presolve time = 17s) ...
Presolve removed 3110000 rows and 5110000 columns (presolve time = 20s) ...
Presolve removed 3230000 rows and 5230000 columns (presolve time = 25s) ...
Presolve removed 3340000 rows and 5340000 columns (presolve time = 30s) ...
Presolve removed 3430000 rows and 5430000 columns (presolve time = 35s) ...
Presolve removed 3520000 rows and 5520000 columns (presolve time = 40s) ...
Presolve removed 3610000 rows and 5610000 columns (presolve time = 46s) ...
Presolve removed 3680000 rows and 5680000 columns (presolve time = 50s) ...
Presolve removed 3760000 rows and 5760000 columns (presolve time = 55s) ...
Presolve removed 3830000 rows and 5830000 columns (presolve time = 60s) ...
Presolve removed 3900000 rows and 5900000 columns (presolve time = 66s) ...
Presolve removed 3960000 rows and 5960000 columns (presolve time = 70s) ...
Presolve removed 4030000 rows and 6030000 columns (presolve time = 76s) ...
Presolve removed 4090000 rows and 6090000 columns (presolve time = 81s) ...
Presolve removed 4150000 rows and 6150000 columns (presolve time = 86s) ...
Presolve removed 4200000 rows and 6200000 columns (presolve time = 90s) ...
Presolve removed 4260000 rows and 6260000 columns (presolve time = 96s) ...
Presolve removed 4310000 rows and 6310000 columns (presolve time = 101s) ...
Presolve removed 4360000 rows and 6360000 columns (presolve time = 106s) ...
Presolve removed 4410000 rows and 6410000 columns (presolve time = 111s) ...
Presolve removed 4460000 rows and 6460000 columns (presolve time = 116s) ...
Presolve removed 4500000 rows and 6500000 columns (presolve time = 120s) ...
Presolve removed 4550000 rows and 6550000 columns (presolve time = 126s) ...
Presolve removed 4600000 rows and 6600000 columns (presolve time = 131s) ...
Presolve removed 4640000 rows and 6640000 columns (presolve time = 136s) ...
Presolve removed 4680000 rows and 6680000 columns (presolve time = 141s) ...
Presolve removed 4720000 rows and 6720000 columns (presolve time = 146s) ...
Presolve removed 4760000 rows and 6760000 columns (presolve time = 151s) ...
Presolve removed 4800000 rows and 6800000 columns (presolve time = 156s) ...
Presolve removed 4840000 rows and 6840000 columns (presolve time = 161s) ...
Presolve removed 4880000 rows and 6880000 columns (presolve time = 166s) ...
Presolve removed 4910000 rows and 6910000 columns (presolve time = 170s) ...
Presolve removed 4950000 rows and 6950000 columns (presolve time = 176s) ...
Presolve removed 4980000 rows and 6980000 columns (presolve time = 180s) ...
Presolve removed 5020000 rows and 7020000 columns (presolve time = 186s) ...
Presolve removed 5050000 rows and 7050000 columns (presolve time = 191s) ...
Presolve removed 5080000 rows and 7080000 columns (presolve time = 195s) ...
Presolve removed 5120000 rows and 7120000 columns (presolve time = 201s) ...
Presolve removed 5150000 rows and 7150000 columns (presolve time = 206s) ...
Presolve removed 5180000 rows and 7180000 columns (presolve time = 211s) ...
Presolve removed 5210000 rows and 7210000 columns (presolve time = 215s) ...
Presolve removed 5240000 rows and 7240000 columns (presolve time = 220s) ...
Presolve removed 5270000 rows and 7270000 columns (presolve time = 225s) ...
Presolve removed 5300000 rows and 7300000 columns (presolve time = 230s) ...
Presolve removed 5330000 rows and 7330000 columns (presolve time = 235s) ...
Presolve removed 5360000 rows and 7360000 columns (presolve time = 240s) ...
Presolve removed 5390000 rows and 7390000 columns (presolve time = 245s) ...
Presolve removed 5420000 rows and 7420000 columns (presolve time = 251s) ...
Presolve removed 5450000 rows and 7450000 columns (presolve time = 256s) ...
Presolve removed 5480000 rows and 7480000 columns (presolve time = 261s) ...
Presolve removed 5510000 rows and 7510000 columns (presolve time = 267s) ...
Presolve removed 5530000 rows and 7530000 columns (presolve time = 270s) ...
Presolve removed 5560000 rows and 7560000 columns (presolve time = 276s) ...
Presolve removed 5590000 rows and 7590000 columns (presolve time = 282s) ...
Presolve removed 5610000 rows and 7610000 columns (presolve time = 285s) ...
Presolve removed 5640000 rows and 7640000 columns (presolve time = 291s) ...
Presolve removed 5670000 rows and 7670000 columns (presolve time = 297s) ...
Presolve removed 5690000 rows and 7690000 columns (presolve time = 301s) ...
Presolve removed 5720000 rows and 7720000 columns (presolve time = 306s) ...
Presolve removed 5740000 rows and 7740000 columns (presolve time = 310s) ...
Presolve removed 5770000 rows and 7770000 columns (presolve time = 316s) ...
Presolve removed 5790000 rows and 7790000 columns (presolve time = 320s) ...
Presolve removed 5820000 rows and 7820000 columns (presolve time = 327s) ...
Presolve removed 5840000 rows and 7840000 columns (presolve time = 331s) ...
Presolve removed 5870000 rows and 7870000 columns (presolve time = 337s) ...
Presolve removed 5890000 rows and 7890000 columns (presolve time = 341s) ...
Presolve removed 5910000 rows and 7910000 columns (presolve time = 345s) ...
Presolve removed 5940000 rows and 7940000 columns (presolve time = 351s) ...
Presolve removed 5960000 rows and 7960000 columns (presolve time = 356s) ...
Presolve removed 5990000 rows and 7990000 columns (presolve time = 362s) ...
Presolve removed 5997000 rows and 7997000 columns (presolve time = 370s) ...
Presolve removed 5997000 rows and 7997000 columns
Presolve time: 380.18s
Presolved: 6001000 rows, 7003000 columns, 20000000 nonzeros

Ordering time: 0.69s

Barrier statistics:
 Dense cols : 3000
 AA' NZ     : 1.200e+07
 Factor NZ  : 2.251e+07 (roughly 5.0 GBytes of memory)
 Factor Ops : 1.812e+10 (roughly 1 second per iteration)
 Threads    : 30

                  Objective                Residual
Iter       Primal          Dual         Primal    Dual     Compl     Time
   0   1.02247334e+14 -7.15037652e+12  5.55e+07 3.20e-01  2.34e+07   408s
   1   2.64170069e+13 -3.84866338e+12  1.37e+07 2.36e+01  4.49e+06   427s
   2   1.57716533e+12 -2.40696651e+12  4.96e+05 1.82e-12  3.31e+05   453s
   3   2.53133979e+09 -1.15939974e+11  0.00e+00 2.97e-07  7.40e+03   479s
   4   2.81649465e+07 -4.92834298e+08  0.00e+00 1.82e-12  3.25e+01   504s
   5  -2.40021650e+07 -1.86773976e+08  0.00e+00 1.36e-12  1.02e+01   524s
   6  -1.17077703e+08 -1.48127776e+08  0.00e+00 1.36e-12  1.94e+00   566s
   7  -1.29908635e+08 -1.37232764e+08  0.00e+00 1.36e-12  4.58e-01   597s
   8  -1.32266685e+08 -1.36967408e+08  0.00e+00 1.36e-12  2.94e-01   639s
   9  -1.32327511e+08 -1.36382173e+08  0.00e+00 1.36e-12  2.53e-01   670s
  10  -1.32557265e+08 -1.35476123e+08  0.00e+00 1.36e-12  1.82e-01   712s
  11  -1.32587345e+08 -1.35202197e+08  0.00e+00 1.36e-12  1.63e-01   743s
  12  -1.32992061e+08 -1.34598795e+08  0.00e+00 1.36e-12  1.00e-01   785s
  13  -1.33148992e+08 -1.34341135e+08  0.00e+00 9.09e-13  7.45e-02   840s
  14  -1.33199571e+08 -1.34171290e+08  0.00e+00 9.09e-13  6.07e-02   882s
  15  -1.33296311e+08 -1.34083173e+08  0.00e+00 1.36e-12  4.92e-02   913s
  16  -1.33326994e+08 -1.34010635e+08  0.00e+00 2.13e-11  4.27e-02   943s
  17  -1.33370017e+08 -1.33862055e+08  0.00e+00 9.09e-13  3.07e-02   986s
  18  -1.33399769e+08 -1.33776700e+08  0.00e+00 9.09e-13  2.35e-02  1041s
  19  -1.33416959e+08 -1.33727766e+08  0.00e+00 1.76e-11  1.94e-02  1108s
  20  -1.33428089e+08 -1.33687541e+08  0.00e+00 9.09e-13  1.62e-02  1176s
  21  -1.33437708e+08 -1.33663194e+08  0.00e+00 1.36e-12  1.41e-02  1243s
  22  -1.33448066e+08 -1.33620719e+08  0.00e+00 9.09e-13  1.08e-02  1311s
  23  -1.33455889e+08 -1.33598275e+08  0.00e+00 9.09e-13  8.90e-03  1378s
  24  -1.33462300e+08 -1.33571408e+08  0.00e+00 9.09e-13  6.82e-03  1446s
  25  -1.33467083e+08 -1.33556616e+08  0.00e+00 9.09e-13  5.59e-03  1514s
  26  -1.33471866e+08 -1.33544848e+08  0.00e+00 7.84e-12  4.56e-03  1581s
  27  -1.33474970e+08 -1.33531253e+08  0.00e+00 1.00e-11  3.52e-03  1649s
  28  -1.33477313e+08 -1.33523111e+08  0.00e+00 1.36e-12  2.86e-03  1716s
  29  -1.33478847e+08 -1.33516472e+08  0.00e+00 1.96e-11  2.35e-03  1771s
  30  -1.33480124e+08 -1.33508717e+08  0.00e+00 1.27e-11  1.79e-03  1840s
  31  -1.33481441e+08 -1.33502567e+08  0.00e+00 2.66e-11  1.32e-03  1907s
  32  -1.33482121e+08 -1.33499031e+08  0.00e+00 3.87e-12  1.06e-03  1962s
  33  -1.33482632e+08 -1.33495669e+08  0.00e+00 1.32e-11  8.14e-04  2030s
  34  -1.33482990e+08 -1.33493197e+08  0.00e+00 9.09e-13  6.38e-04  2103s
  35  -1.33483198e+08 -1.33491281e+08  0.00e+00 2.64e-11  5.05e-04  2158s
  36  -1.33483465e+08 -1.33488523e+08  0.00e+00 9.09e-13  3.16e-04  2226s
  37  -1.33483690e+08 -1.33487309e+08  0.00e+00 9.09e-13  2.26e-04  2294s
  38  -1.33483757e+08 -1.33485942e+08  0.00e+00 1.36e-12  1.36e-04  2361s
  39  -1.33483804e+08 -1.33485499e+08  0.00e+00 2.17e-11  1.06e-04  2416s
  40  -1.33483811e+08 -1.33485021e+08  0.00e+00 1.71e-11  7.56e-05  2459s
  41  -1.33483820e+08 -1.33484721e+08  0.00e+00 9.09e-13  5.63e-05  2490s
  42  -1.33483836e+08 -1.33484619e+08  0.00e+00 1.36e-12  4.89e-05  2520s
  43  -1.33483845e+08 -1.33484365e+08  0.00e+00 4.90e-11  3.25e-05  2551s
  44  -1.33483852e+08 -1.33484203e+08  0.00e+00 9.09e-13  2.19e-05  2582s
  45  -1.33483856e+08 -1.33484133e+08  0.00e+00 9.09e-13  1.73e-05  2612s
  46  -1.33483860e+08 -1.33484067e+08  0.00e+00 3.07e-12  1.30e-05  2643s
  47  -1.33483861e+08 -1.33483987e+08  0.00e+00 9.47e-10  7.87e-06  2679s
  48  -1.33483862e+08 -1.33483950e+08  0.00e+00 6.61e-10  5.50e-06  2721s
  49  -1.33483862e+08 -1.33483923e+08  0.00e+00 4.64e-10  3.82e-06  2774s
  50  -1.33483863e+08 -1.33483892e+08  0.00e+00 2.24e-10  1.85e-06  2817s
  51  -1.33483864e+08 -1.33483886e+08  0.00e+00 1.58e-09  1.40e-06  2853s
  52  -1.33483865e+08 -1.33483871e+08  0.00e+00 4.13e-10  3.97e-07  2884s
  53  -1.33483865e+08 -1.33483865e+08  0.00e+00 6.34e-12  1.87e-08  2914s
  54  -1.33483865e+08 -1.33483865e+08  0.00e+00 2.12e-10  2.48e-11  2939s

Barrier solved model in 54 iterations and 2939.10 seconds
Optimal objective -1.33483865e+08

Crossover log...

     998 DPushes remaining with DInf 0.0000000e+00              2955s
       0 DPushes remaining with DInf 0.0000000e+00              2964s

       0 PPushes remaining with PInf 0.0000000e+00              2965s

  Push phase complete: Pinf 0.0000000e+00, Dinf 3.1054704e-09   2966s

Iteration    Objective       Primal Inf.    Dual Inf.      Time
 1001007   -1.3348387e+08   0.000000e+00   0.000000e+00   2989s

Solved with barrier
Solved in 1001007 iterations and 2989.56 seconds
Optimal objective -1.334838651e+08
Changed value of parameter LogFile to 
   Prev: /tmp/tmp6vjp3t61.log  Default: 
